job_count = 10 ;
duration = [|22, 3|2, 13|24, 4|10, 9|23, 9|20, 2|24, 4|3, 7|13, 5|5, 10|] ;
machine_count = 2 ;
cost = [|25, 28|26, 32|31, 48|22, 52|28, 35|31, 39|29, 46|20, 47|29, 51|31, 29|] ;
deadline = [33, 33, 33, 33, 33, 33, 33, 33, 33, 33] ;
release = [0, 0, 0, 0, 0, 0, 0, 0, 0, 0] ;
resource = [|8, 8|9, 9|9, 9|1, 1|8, 8|2, 2|9, 9|9, 9|4, 4|7, 7|] ;
capacities = [10, 10] ;
